Instance name: /home/cuong/CLionProjects/uMV-FSTSP/50_dis_rand_ins/v25
Write arg val: 1

drone speed: 1 miles/minute
uav non-eligible customer: 11 
Printing tau:
0 12.3762 53.5451 78.2232 58.0996 77.471 56.7566 58.7808 51.5914 95.7318 97.1959 0 
12.3762 0 45.373 66.4322 46.3087 65.68 44.9656 46.9899 39.8004 83.9408 85.4049 12.3762 
53.5451 45.373 0 24.678 38.6857 33.3806 22.9589 79.9924 66.79 42.4745 44.0067 53.5451 
78.2232 66.4322 24.678 0 47.3746 42.0695 31.6478 88.6813 75.4789 51.1635 52.6956 78.2232 
58.0996 46.3087 38.6857 47.3746 0 19.3713 15.7268 41.3067 28.1042 37.6321 39.0963 58.0996 
77.471 65.68 33.3806 42.0695 19.3713 0 20.7144 46.6119 33.4094 18.2608 19.7249 77.471 
56.7566 44.9656 22.9589 31.6478 15.7268 20.7144 0 57.0335 43.831 38.9752 40.4393 56.7566 
58.7808 46.9899 79.9924 88.6813 41.3067 46.6119 57.0335 0 13.2025 37.5179 38.4151 58.7808 
51.5914 39.8004 66.79 75.4789 28.1042 33.4094 43.831 13.2025 0 44.1404 45.6045 51.5914 
95.7318 83.9408 42.4745 51.1635 37.6321 18.2608 38.9752 37.5179 44.1404 0 1.53212 95.7318 
97.1959 85.4049 44.0067 52.6956 39.0963 19.7249 40.4393 38.4151 45.6045 1.53212 0 97.1959 
0 0 0 0 0 0 0 0 0 0 0 0 
Printing tau_prime:
0 4.53267 16.6777 23.5035 15.4797 20.5428 15.2834 19.9558 16.3537 25.5088 25.9378 0 
4.53267 0 16.3504 22.7114 12.4068 17.704 13.3225 15.4765 11.9846 22.2714 22.6493 4.53267 
16.6777 16.3504 0 6.93751 10.3289 10.8902 6.14717 21.2566 17.7179 15.8741 16.4359 16.6777 
23.5035 22.7114 6.93751 0 13.6484 11.1571 10.1403 24.0737 21.2237 14.3392 14.8511 23.5035 
15.4797 12.4068 10.3289 13.6484 0 5.32574 4.18538 10.9546 7.64948 10.0292 10.4625 15.4797 
20.5428 17.704 10.8902 11.1571 5.32574 0 6.14872 13.3164 11.206 5.40935 5.94104 20.5428 
15.2834 13.3225 6.14717 10.1403 4.18538 6.14872 0 15.1328 11.7029 11.558 12.0886 15.2834 
19.9558 15.4765 21.2566 24.0737 10.9546 13.3164 15.1328 0 3.98625 13.9633 13.9576 19.9558 
16.3537 11.9846 17.7179 21.2237 7.64948 11.206 11.7029 3.98625 0 13.3629 13.5178 16.3537 
25.5088 22.2714 15.8741 14.3392 10.0292 5.40935 11.558 13.9633 13.3629 0 0.561944 25.5088 
25.9378 22.6493 16.4359 14.8511 10.4625 5.94104 12.0886 13.9576 13.5178 0.561944 0 25.9378 
0 0 0 0 0 0 0 0 0 0 0 0 
Version identifier: 22.1.1.0 | 2022-11-28 | 9160aff4d
CPXPARAM_MIP_Tolerances_Integrality              0
Tried aggregator 1 time.
MIP Presolve eliminated 1 rows and 12 columns.
MIP Presolve modified 20 coefficients.
Reduced MIP has 122 rows, 120 columns, and 510 nonzeros.
Reduced MIP has 110 binaries, 0 generals, 0 SOSs, and 0 indicators.
Presolve time = 0.00 sec. (0.27 ticks)
Found incumbent of value 509.418800 after 0.00 sec. (0.75 ticks)
Probing time = 0.00 sec. (0.26 ticks)
Cover probing fixed 0 vars, tightened 10 bounds.
Tried aggregator 1 time.
Detecting symmetries...
MIP Presolve eliminated 10 rows and 0 columns.
MIP Presolve modified 180 coefficients.
Reduced MIP has 112 rows, 120 columns, and 490 nonzeros.
Reduced MIP has 110 binaries, 0 generals, 0 SOSs, and 0 indicators.
Presolve time = 0.00 sec. (0.35 ticks)
Probing time = 0.00 sec. (0.26 ticks)
Clique table members: 67.
MIP emphasis: balance optimality and feasibility.
MIP search method: dynamic search.
Parallel mode: deterministic, using up to 20 threads.
Root relaxation solution time = 0.00 sec. (0.20 ticks)

        Nodes                                         Cuts/
   Node  Left     Objective  IInf  Best Integer    Best Bound    ItCnt     Gap

*     0+    0                          509.4188        0.0000           100.00%
      0     0      172.0967    20      509.4188      172.0967       24   66.22%
*     0+    0                          327.5275      172.0967            47.46%
      0     0      222.9231    18      327.5275      Cuts: 25       40   31.94%
*     0+    0                          296.9260      222.9231            24.92%
      0     0      222.9231    18      296.9260      Cuts: 23       50   24.92%
*     0+    0                          272.1750      222.9231            18.10%
      0     0      222.9231    18      272.1750       Cuts: 7       54   18.10%
Detecting symmetries...
      0     2      222.9231    18      272.1750      223.6242       54   17.84%
Elapsed time = 0.03 sec. (9.23 ticks, tree = 0.02 MB, solutions = 4)
*   544+   75                          268.5561      234.7379            12.59%

Clique cuts applied:  3
Implied bound cuts applied:  281
Flow cuts applied:  1
Mixed integer rounding cuts applied:  11
Multi commodity flow cuts applied:  6
Gomory fractional cuts applied:  2

Root node processing (before b&c):
  Real time             =    0.03 sec. (9.17 ticks)
Parallel b&c, 20 threads:
  Real time             =    0.02 sec. (10.71 ticks)
  Sync time (average)   =    0.01 sec.
  Wait time (average)   =    0.00 sec.
                          ------------
Total (root+branch&cut) =    0.05 sec. (19.88 ticks)

TSP solution for this instance: 0 2 3 6 4 5 9 10 7 8 1 11 
12
Warmstart X[1][0] == 1
Warmstart X[2][2] == 1
Warmstart X[3][3] == 1
Warmstart X[4][6] == 1
Warmstart X[5][4] == 1
Warmstart X[6][5] == 1
Warmstart X[7][9] == 1
Warmstart X[8][10] == 1
Warmstart X[9][7] == 1
Warmstart X[10][8] == 1
Warmstart X[11][1] == 1
---------------------------------------------
Calculate max stage gap for sortie.... 
Stage gap calculation consumes too much memory. No constraint was added.
---------------------------------------------
Num constraint added = 5940
Warning:  Output names have been modified due to duplicate names or characters invalid in LP format.
Version identifier: 22.1.1.0 | 2022-11-28 | 9160aff4d
CPXPARAM_TimeLimit                               200
CPXPARAM_MIP_Tolerances_Integrality              0
1 of 1 MIP starts provided solutions.
MIP start 'm1' defined initial solution with objective 268.5561.
Tried aggregator 2 times.
MIP Presolve eliminated 6496 rows and 1533 columns.
MIP Presolve modified 2587 coefficients.
Aggregator did 42 substitutions.
Reduced MIP has 1529 rows, 3201 columns, and 37135 nonzeros.
Reduced MIP has 3180 binaries, 0 generals, 0 SOSs, and 0 indicators.
Presolve time = 0.04 sec. (121.53 ticks)
Probing fixed 262 vars, tightened 0 bounds.
Probing changed sense of 4 constraints.
Probing time = 0.05 sec. (125.21 ticks)
Tried aggregator 2 times.
Detecting symmetries...
MIP Presolve eliminated 117 rows and 294 columns.
MIP Presolve modified 236 coefficients.
Aggregator did 11 substitutions.
Reduced MIP has 1401 rows, 2896 columns, and 31239 nonzeros.
Reduced MIP has 2875 binaries, 0 generals, 0 SOSs, and 0 indicators.
Presolve time = 0.02 sec. (46.19 ticks)
Probing time = 0.00 sec. (5.72 ticks)
Clique table members: 12310.
MIP emphasis: balance optimality and feasibility.
MIP search method: dynamic search.
Parallel mode: deterministic, using up to 20 threads.
Root relaxation solution time = 0.13 sec. (263.70 ticks)

        Nodes                                         Cuts/
   Node  Left     Objective  IInf  Best Integer    Best Bound    ItCnt     Gap

*     0+    0                          268.5561       12.3762            95.39%
      0     0      161.6316   234      268.5561      161.6316       40   39.81%
      0     0      165.4110   268      268.5561      Cuts: 74      991   38.41%
      0     0      167.0170   302      268.5561      Cuts: 18     1533   35.55%
      0     0      167.2115   355      268.5561      Cuts: 11     1779   35.55%
      0     0      167.2506   331      268.5561   ZeroHalf: 2     1885   35.55%
      0     0      167.2629   358      268.5561       Cuts: 3     1948   35.55%
Detecting symmetries...
Detecting symmetries...
      0     2      167.2629   348      268.5561      173.0748     1948   35.55%
Elapsed time = 1.18 sec. (2210.96 ticks, tree = 0.02 MB, solutions = 1)
      2     3      168.8436   276      268.5561      173.0748     2760   35.55%
      4     3      174.9234   291      268.5561      173.0748     5833   35.55%
     10     7      200.8185   127      268.5561      176.0209    12371   34.46%
    120    33      242.3547   256      268.5561      183.0159    24644   31.85%
    219   101        cutoff            268.5561      183.2302    58377   31.77%
    485   106        cutoff            268.5561      183.2302    98629   31.77%
    931   181        cutoff            268.5561      183.2302   132942   31.77%
   1352   368      240.8554    98      268.5561      183.2302   217097   31.77%
   1746   438        cutoff            268.5561      189.0181   261731   29.62%
   3045   989      227.0234   102      268.5561      189.0181   475212   29.62%
Elapsed time = 3.80 sec. (5381.28 ticks, tree = 1.14 MB, solutions = 1)
   3913  1561      221.7131    77      268.5561      195.0493   652451   27.37%
   5532  2530      226.5807    86      268.5561      207.7565   921981   22.64%
*  5614  2755      integral     0      266.0912      208.7220   983240   21.56%
   6536  3086        cutoff            266.0912      209.1042  1115263   21.42%

Performing restart 1

Repeating presolve.
Tried aggregator 1 time.
MIP Presolve eliminated 49 rows and 40 columns.
MIP Presolve modified 8802 coefficients.
Reduced MIP has 1351 rows, 2856 columns, and 26358 nonzeros.
Reduced MIP has 2835 binaries, 0 generals, 0 SOSs, and 0 indicators.
Presolve time = 0.02 sec. (43.23 ticks)
Tried aggregator 1 time.
MIP Presolve eliminated 11 rows and 10 columns.
Reduced MIP has 1340 rows, 2846 columns, and 26175 nonzeros.
Reduced MIP has 2825 binaries, 0 generals, 0 SOSs, and 0 indicators.
Presolve time = 0.01 sec. (20.81 ticks)
Represolve time = 0.12 sec. (166.08 ticks)
   7039     0      168.3935   293      266.0912       Cuts: 7  1270156   19.99%
   7039     0      168.9019   273      266.0912       Cuts: 4  1270367   19.99%
   7039     0      172.1810   346      266.0912      Cuts: 56  1271134   19.99%
   7039     0      174.7126   318      266.0912      Cuts: 38  1272159   19.99%
   7039     0      175.1712   315      266.0912      Cuts: 24  1272604   19.99%
   7039     0      175.5060   400      266.0912      Cuts: 19  1272849   19.99%
   7039     0      175.7773   396      266.0912       Cuts: 5  1273139   19.99%
   7039     2      175.7773   392      266.0912      212.9058  1273139   19.99%
   7041     3      204.7782   154      266.0912      212.9058  1276396   19.99%
   7049     4      195.6749   184      266.0912      212.9058  1274662   19.99%
*  7062+    5                          253.2813      212.9058            15.94%
   7086    18      175.9932   322      253.2813      212.9058  1298729   15.94%
   7293    80        cutoff            253.2813      212.9058  1335587   15.94%
   7601   102        cutoff            253.2813      212.9058  1398077   15.94%
   7817    36      241.9897    80      253.2813      212.9058  1448624   15.94%
Elapsed time = 15.66 sec. (20849.16 ticks, tree = 0.02 MB, solutions = 3)
   8270    31      235.8890   217      253.2813      212.9058  1506203   15.94%
   8956   383      220.5871   166      253.2813      212.9058  1601504   15.94%
   9254   348      223.1387   183      253.2813      212.9058  1632724   15.94%
  10352   526      235.0727   195      253.2813      212.9058  1745781   15.94%
  10542  1014      225.1921    77      253.2813      212.9058  1883748   15.94%
  11364  1118        cutoff            253.2813      212.9058  2016002   15.94%
  12229  1533        cutoff            253.2813      212.9058  2175474   15.94%
  12519  1498        cutoff            253.2813      212.9058  2301162   15.94%
  14330  1012    infeasible            253.2813      212.9058  2475841   15.94%
  15226   416        cutoff            253.2813      212.9058  2636067   15.94%
Elapsed time = 25.66 sec. (30418.03 ticks, tree = 0.33 MB, solutions = 3)
  15688    74      199.3886   194      253.2813      212.9058  2660153   15.94%
  15726    10      201.8230   208      253.2813      212.9058  2681749   15.94%
  15898    25      226.6659   156      253.2813      212.9058  2708065   15.94%
  16849    90        cutoff            253.2813      212.9058  2853440   15.94%

GUB cover cuts applied:  9
Clique cuts applied:  1
Cover cuts applied:  19
Flow cuts applied:  2
Mixed integer rounding cuts applied:  7
Zero-half cuts applied:  23
Gomory fractional cuts applied:  3

Root node processing (before b&c):
  Real time             =    1.15 sec. (2181.06 ticks)
Parallel b&c, 20 threads:
  Real time             =   27.42 sec. (32725.06 ticks)
  Sync time (average)   =    9.99 sec.
  Wait time (average)   =    0.01 sec.
                          ------------
Total (root+branch&cut) =   28.57 sec. (34906.12 ticks)
Feasible solution found!
Truck nodes:
Stage 1 at customer 0 with arrival time is: 0
Stage 1 at customer 0 with departure time is: 0
Stage 2 at customer 2 with arrival time is: 53.5451
Stage 2 at customer 2 with departure time is: 53.5451
Stage 3 at customer 3 with arrival time is: 78.2231
Stage 3 at customer 3 with departure time is: 78.2231
Stage 4 at customer 5 with arrival time is: 120.293
Stage 4 at customer 5 with departure time is: 121.293
Stage 5 at customer 9 with arrival time is: 139.553
Stage 5 at customer 9 with departure time is: 140.553
Stage 6 at customer 10 with arrival time is: 142.086
Stage 6 at customer 10 with departure time is: 142.086
Stage 7 at customer 7 with arrival time is: 180.501
Stage 7 at customer 7 with departure time is: 181.501
Stage 8 at customer 8 with arrival time is: 194.703
Stage 8 at customer 8 with departure time is: 201.105
Stage 9 at customer 1 with arrival time is: 240.905
Stage 9 at customer 1 with departure time is: 240.905
Stage 10 at customer 11 with arrival time is: 253.281
Stage 10 at customer 11 with departure time is: 253.281
Truck arcs:
Arc 1 connecting 0 and 2 with cost 53.5451 
Arc 2 connecting 2 and 3 with cost 24.678 
Arc 3 connecting 3 and 5 with cost 42.0695 
Arc 4 connecting 5 and 9 with cost 18.2608 
Arc 5 connecting 9 and 10 with cost 1.53212 
Arc 6 connecting 10 and 7 with cost 38.4151 
Arc 7 connecting 7 and 8 with cost 13.2025 
Arc 8 connecting 8 and 1 with cost 39.8004 
Arc 9 connecting 1 and 11 with cost 12.3762 
Customer 4 served by drone.
Drone fly from 7 at stage 7 to serve 4 and then fly back to 8 at stage 8. 
Truck arcs during this sortie: 7--->8
Truck travel time from stage 7 to 8 is: 13.2025
Total drone travel time: 18.6041
Drone arrival time: 200.105
Truck arrival time: 194.703
Truck departure time = max(d/a, t/a) plus (sl/sr): 201.105
Customer 6 served by drone.
Drone fly from 5 at stage 4 to serve 6 and then fly back to 9 at stage 5. 
Truck arcs during this sortie: 5--->9
Truck travel time from stage 4 to 5 is: 18.2608
Total drone travel time: 17.7067
Drone arrival time: 138.999
Truck arrival time: 139.553
Truck departure time = max(d/a, t/a) plus (sl/sr): 140.553
Done!
-------------------------Re-calculated objective-----------------------
253.281
------------------------------------------------------------------------
Solve time: 28.576
OBJECTIVE VALUE: 253.281, NUMBER OF SORTIES: 2.
Number of revisit: 0
In write mode
